\ LP format - for model browsing. Use MPS format to capture full model detail.
Maximize
  16 x_0_0 + 19 x_0_1 + 11 x_0_2 + 8 x_0_3 + x_1_0 + 2 x_1_1 + 14 x_1_2
   + 9 x_1_3 + 9 x_2_0 + 15 x_2_1 + 5 x_2_2 + 12 x_2_3 + 8 x_3_0 + 11 x_3_1
   + 15 x_3_2 + 11 x_3_3
Subject To
 Vendedor_0: x_0_0 + x_0_1 + x_0_2 + x_0_3 = 1
Bounds
Binaries
 x_0_0 x_0_1 x_0_2 x_0_3 x_1_0 x_1_1 x_1_2 x_1_3 x_2_0 x_2_1 x_2_2 x_2_3
 x_3_0 x_3_1 x_3_2 x_3_3
End
